SECTION Graph 
Nodes 853
Edges 1590
E 1 149 1
E 1 509 5
E 1 521 1
E 1 527 1
E 2 149 1
E 2 518 5
E 2 533 1
E 2 592 33
E 3 442 34
E 3 523 5
E 3 537 1
E 4 533 5
E 4 540 1
E 5 409 1
E 5 410 1
E 5 417 1
E 5 432 5
E 6 432 6
E 7 410 5
E 7 432 1
E 8 417 5
E 8 432 1
E 8 435 1
E 9 760 2
E 9 769 2
E 9 770 2
E 10 769 2
E 10 770 2
E 11 770 6
E 12 621 2
E 12 622 2
E 12 635 1
E 12 655 10
E 13 661 2
E 13 667 1
E 13 677 1
E 13 687 10
E 14 595 26
E 14 661 1
E 14 677 2
E 15 16 2
E 15 580 26
E 15 626 6
E 15 656 5
E 16 21 10
E 16 635 6
E 16 667 5
E 17 18 2
E 17 651 1
E 17 652 1
E 17 659 2
E 18 654 1
E 18 665 1
E 18 672 2
E 19 20 2
E 19 686 1
E 19 687 1
E 19 692 1
E 20 691 1
E 20 697 1
E 20 698 1
E 21 660 6
E 21 681 1
E 21 683 5
E 22 676 7
E 22 682 1
E 22 694 5
E 22 728 21
E 23 559 2
E 23 561 1
E 23 565 1
E 23 622 26
E 24 26 1
E 24 591 1
E 24 595 1
E 24 661 26
E 25 27 1
E 25 561 1
E 25 565 1
E 25 577 6
E 26 28 1
E 26 590 1
E 26 594 1
E 27 483 28
E 27 560 1
E 27 574 6
E 28 519 28
E 28 588 1
E 28 592 1
E 29 30 1
E 29 45 1
E 29 345 2
E 30 46 1
E 30 351 2
E 30 352 2
E 31 394 1
E 31 395 1
E 31 405 2
E 31 416 5
E 32 345 7
E 32 370 1
E 32 373 1
E 32 390 5
E 33 364 7
E 33 373 2
E 33 402 5
E 33 420 10
E 34 785 9
E 34 796 7
E 35 797 1
E 36 270 1
E 37 281 5
E 37 353 24
E 38 39 2
E 38 744 1
E 38 751 6
E 39 713 18
E 39 757 6
E 40 41 2
E 40 771 2
E 40 773 1
E 40 778 1
E 41 775 2
E 41 780 1
E 41 781 1
E 42 744 6
E 42 747 5
E 42 751 1
E 42 764 6
E 43 717 24
E 43 757 1
E 43 774 6
E 44 280 11
E 44 299 2
E 44 303 6
E 45 46 1
E 45 47 9
E 46 303 9
E 46 344 2
E 47 277 17
E 47 303 1
E 48 299 6
E 48 303 2
E 48 344 9
E 48 350 10
E 49 56 1
E 49 673 5
E 49 690 6
E 49 695 8
E 50 704 1
E 50 705 1
E 50 711 2
E 50 723 8
E 51 511 26
E 51 536 17
E 51 582 1
E 51 584 2
E 52 55 6
E 52 582 2
E 52 584 1
E 52 601 10
E 53 606 2
E 53 609 1
E 53 619 2
E 53 640 10
E 54 55 2
E 54 531 26
E 54 582 6
E 54 602 6
E 55 609 6
E 55 620 10
E 56 58 1
E 56 669 5
E 56 688 6
E 57 59 1
E 57 688 6
E 57 704 1
E 57 705 1
E 58 632 16
E 58 679 1
E 58 684 6
E 59 670 16
E 59 684 6
E 59 702 1
E 60 62 1
E 60 575 5
E 60 604 10
E 60 612 12
E 61 63 1
E 61 612 1
E 61 628 4
E 61 642 10
E 62 63 13
E 62 572 5
E 62 583 1
E 63 624 4
E 64 361 2
E 64 365 1
E 64 369 1
E 64 377 5
E 65 67 1
E 65 388 6
E 65 426 4
E 65 496 30
E 66 68 1
E 66 365 1
E 66 369 1
E 66 382 6
E 67 69 1
E 67 382 6
E 67 422 4
E 68 362 1
E 68 363 1
E 68 378 6
E 69 378 6
E 69 400 1
E 69 418 4
E 70 71 1
E 70 77 1
E 70 269 10
E 70 290 3
E 71 78 1
E 71 288 2
E 71 289 2
E 72 298 6
E 72 306 1
E 72 317 2
E 72 321 4
E 73 293 6
E 73 298 2
E 73 317 6
E 73 372 21
E 74 631 25
E 74 713 9
E 74 720 12
E 75 720 1
E 75 722 1
E 76 186 113
E 76 257 1
E 76 263 2
E 76 272 6
E 77 78 1
E 77 267 10
E 77 279 2
E 78 282 2
E 78 287 2
E 79 253 10
E 79 257 6
E 79 272 1
E 79 276 6
E 80 263 6
E 80 272 2
E 80 283 6
E 80 294 14
E 81 275 114
E 81 586 1
E 81 611 12
E 82 586 12
E 82 599 2
E 82 611 1
E 82 623 5
E 83 85 1
E 83 262 113
E 83 571 1
E 83 578 3
E 84 86 1
E 84 571 12
E 84 599 3
E 84 607 5
E 85 260 113
E 85 562 3
E 85 569 1
E 86 569 12
E 86 593 3
E 86 604 5
E 87 89 1
E 87 205 113
E 87 316 6
E 88 336 1
E 88 337 1
E 88 355 2
E 88 367 5
E 89 91 1
E 89 203 113
E 89 313 6
E 90 92 1
E 90 313 6
E 90 336 1
E 90 337 1
E 91 201 113
E 91 296 1
E 91 308 6
E 92 308 6
E 92 323 1
E 92 331 1
E 93 94 10
E 93 115 7
E 93 236 2
E 93 237 3
E 94 116 7
E 94 244 1
E 94 248 3
E 95 248 1
E 95 249 1
E 95 256 6
E 95 545 113
E 96 97 10
E 96 119 9
E 96 224 2
E 96 226 3
E 97 120 9
E 97 230 3
E 97 505 126
E 98 225 12
E 98 230 1
E 98 232 1
E 98 520 126
E 99 100 10
E 99 123 9
E 99 212 2
E 99 214 3
E 100 124 9
E 100 217 2
E 100 219 3
E 100 436 126
E 101 219 1
E 101 220 1
E 101 222 6
E 101 447 125
E 102 103 10
E 102 191 2
E 102 194 3
E 103 202 2
E 103 206 1
E 103 208 3
E 104 206 3
E 104 208 1
E 104 210 6
E 104 367 126
E 105 106 1
E 105 154 8
E 105 159 1
E 106 161 1
E 106 165 3
E 107 174 1
E 107 177 2
E 108 176 1
E 108 177 1
E 108 179 1
E 108 251 119
E 109 250 46
E 109 326 1
E 109 335 1
E 109 341 2
E 110 346 10
E 110 375 1
E 111 112 10
E 111 247 3
E 111 250 2
E 111 254 2
E 112 259 3
E 112 268 1
E 112 271 2
E 113 234 9
E 113 240 1
E 113 326 53
E 114 243 10
E 114 248 6
E 114 256 1
E 114 258 3
E 115 116 10
E 115 228 7
E 115 231 2
E 116 118 7
E 116 238 1
E 117 223 9
E 117 227 1
E 117 229 7
E 118 228 10
E 118 230 6
E 118 235 1
E 119 120 10
E 119 216 7
E 119 221 2
E 120 122 7
E 120 225 1
E 121 211 9
E 121 215 1
E 121 218 7
E 122 216 10
E 122 219 6
E 122 222 1
E 123 124 10
E 123 204 7
E 123 209 2
E 124 126 7
E 124 213 1
E 125 127 4
E 125 199 1
E 125 207 7
E 126 128 4
E 126 204 10
E 126 210 1
E 127 193 1
E 128 195 10
E 128 208 2
E 128 371 127
E 129 130 10
E 129 184 14
E 129 188 1
E 129 189 9
E 130 132 14
E 130 192 1
E 130 197 9
E 131 180 2
E 131 184 1
E 131 188 14
E 132 134 2
E 132 184 10
E 132 187 1
E 133 134 10
E 133 135 1
E 133 180 1
E 133 184 2
E 134 136 1
E 134 186 1
E 135 136 10
E 135 173 9
E 135 178 1
E 136 181 9
E 136 185 1
E 137 165 1
E 137 169 1
E 138 172 10
E 138 176 3
E 138 181 1
E 138 182 1
E 139 140 10
E 139 141 1
E 139 156 2
E 139 160 6
E 140 142 1
E 140 174 6
E 141 142 10
E 141 155 2
E 141 157 1
E 142 144 1
E 143 150 1
E 143 153 1
E 144 157 10
E 145 311 6
E 146 311 1
E 146 330 15
E 147 311 4
E 148 150 78
E 149 515 5
E 149 530 1
E 150 151 1
E 151 152 1
E 151 153 1
E 152 154 1
E 152 155 1
E 153 155 1
E 153 157 2
E 154 156 1
E 155 156 1
E 156 158 6
E 158 159 2
E 158 160 2
E 159 161 1
E 159 162 1
E 160 164 2
E 160 174 10
E 161 163 1
E 161 167 3
E 162 163 1
E 162 164 1
E 163 166 1
E 163 170 3
E 164 166 1
E 164 175 10
E 165 167 1
E 166 168 1
E 166 176 10
E 167 169 1
E 167 170 1
E 168 172 2
E 168 179 11
E 169 171 1
E 170 171 1
E 170 172 1
E 171 173 1
E 171 178 9
E 172 173 1
E 173 181 10
E 174 175 2
E 175 176 1
E 175 177 1
E 178 180 1
E 179 182 2
E 179 252 119
E 181 183 1
E 182 183 1
E 182 253 119
E 183 185 9
E 185 186 1
E 185 257 113
E 186 187 2
E 187 192 14
E 187 263 113
E 188 193 19
E 189 190 1
E 189 197 10
E 190 191 1
E 190 200 10
E 191 202 10
E 192 196 7
E 192 286 113
E 193 195 2
E 193 199 4
E 194 195 2
E 194 208 10
E 195 204 4
E 196 198 1
E 196 295 113
E 197 200 1
E 197 201 1
E 198 201 1
E 198 296 113
E 199 204 2
E 199 209 7
E 200 202 1
E 200 203 1
E 201 203 1
E 202 205 1
E 203 205 1
E 205 206 2
E 207 209 1
E 207 211 9
E 209 212 9
E 210 213 7
E 210 376 125
E 211 212 1
E 212 215 9
E 213 217 10
E 213 407 125
E 214 216 6
E 214 219 10
E 215 216 2
E 215 221 7
E 217 220 1
E 217 443 126
E 218 221 1
E 218 223 9
E 220 448 126
E 221 224 9
E 222 225 7
E 222 458 125
E 223 224 1
E 224 227 9
E 225 482 125
E 226 228 6
E 226 230 10
E 227 228 2
E 227 231 7
E 229 231 1
E 229 234 7
E 231 236 7
E 232 233 2
E 232 536 131
E 233 235 3
E 233 539 131
E 234 236 1
E 235 238 7
E 235 550 131
E 236 240 9
E 237 243 6
E 237 248 10
E 238 239 1
E 238 566 131
E 239 241 2
E 239 567 131
E 240 243 2
E 240 250 7
E 241 242 1
E 241 573 131
E 242 244 3
E 242 576 131
E 243 245 3
E 244 246 1
E 244 583 131
E 245 247 1
E 245 258 10
E 246 249 1
E 246 538 113
E 247 259 10
E 249 541 113
E 251 252 1
E 251 261 9
E 252 253 2
E 252 264 9
E 253 267 9
E 254 255 1
E 254 271 10
E 255 273 10
E 255 312 35
E 256 260 3
E 256 562 113
E 258 259 1
E 258 260 1
E 259 262 1
E 260 262 1
E 261 264 1
E 261 265 1
E 262 268 3
E 263 286 14
E 264 266 1
E 264 267 2
E 265 266 1
E 265 277 9
E 266 269 2
E 266 280 9
E 267 269 1
E 268 274 2
E 268 578 113
E 269 284 9
E 270 281 7
E 270 304 24
E 271 273 1
E 271 274 1
E 272 278 6
E 273 275 1
E 273 354 35
E 274 275 1
E 274 586 114
E 276 278 1
E 276 279 1
E 277 280 1
E 278 282 1
E 278 283 2
E 279 282 1
E 280 284 2
E 281 368 33
E 282 285 2
E 283 285 1
E 283 300 14
E 284 297 10
E 284 299 11
E 285 287 2
E 285 302 14
E 286 294 6
E 286 295 7
E 287 288 1
E 287 309 14
E 288 292 2
E 288 314 14
E 289 291 1
E 289 292 2
E 290 291 1
E 290 297 6
E 291 293 2
E 291 298 6
E 292 293 1
E 292 349 21
E 293 320 14
E 294 300 6
E 294 301 7
E 295 296 1
E 295 301 6
E 296 305 6
E 297 298 1
E 297 306 6
E 299 322 10
E 300 302 1
E 300 319 7
E 301 305 1
E 301 319 6
E 302 309 2
E 302 324 7
E 304 307 1
E 305 308 1
E 305 323 6
E 306 318 4
E 307 310 1
E 308 313 1
E 309 314 1
E 309 332 7
E 310 329 6
E 312 315 1
E 312 354 10
E 313 316 1
E 314 320 3
E 314 339 7
E 315 341 7
E 315 360 10
E 316 336 6
E 317 328 4
E 317 396 21
E 318 321 1
E 318 322 1
E 319 323 1
E 319 324 1
E 320 357 7
E 320 441 32
E 321 325 1
E 321 328 2
E 322 325 1
E 322 350 6
E 323 327 1
E 324 327 1
E 324 332 2
E 325 333 2
E 325 358 6
E 326 330 1
E 327 331 1
E 327 338 2
E 328 333 1
E 328 412 21
E 329 334 1
E 330 335 1
E 331 337 1
E 331 342 2
E 332 338 1
E 332 339 1
E 333 366 6
E 333 415 21
E 334 340 1
E 334 368 7
E 335 346 2
E 336 376 11
E 337 347 2
E 338 342 1
E 338 343 1
E 339 343 1
E 339 349 2
E 340 345 1
E 340 370 7
E 341 346 1
E 341 375 10
E 342 347 1
E 342 348 1
E 343 348 1
E 343 363 3
E 344 351 1
E 344 379 10
E 345 352 1
E 347 355 1
E 347 356 1
E 348 356 1
E 348 362 2
E 349 357 1
E 349 362 2
E 350 358 1
E 350 379 9
E 351 364 2
E 351 384 10
E 352 364 2
E 352 373 7
E 353 359 1
E 354 360 1
E 354 713 132
E 355 361 1
E 356 361 1
E 356 365 2
E 357 363 1
E 357 372 6
E 358 366 2
E 358 383 9
E 359 380 8
E 360 375 7
E 360 717 132
E 362 365 1
E 363 374 6
E 364 393 10
E 366 392 9
E 366 433 21
E 367 371 2
E 367 377 5
E 368 370 1
E 368 380 5
E 369 388 6
E 369 456 28
E 370 385 5
E 371 381 4
E 371 387 5
E 372 374 1
E 372 396 6
E 373 394 5
E 374 378 1
E 374 400 6
E 376 381 1
E 376 407 7
E 377 387 2
E 378 382 1
E 379 383 1
E 379 384 1
E 380 385 1
E 380 386 1
E 381 403 5
E 381 411 7
E 382 388 1
E 383 389 1
E 383 392 2
E 384 389 1
E 384 393 2
E 385 390 1
E 385 391 1
E 386 391 1
E 386 406 5
E 387 403 4
E 389 397 2
E 389 398 2
E 390 394 1
E 390 395 1
E 391 395 1
E 391 409 5
E 392 397 1
E 392 441 14
E 393 398 1
E 393 399 1
E 394 402 2
E 395 413 5
E 396 400 1
E 396 412 4
E 397 404 2
E 397 445 14
E 398 401 1
E 398 404 2
E 399 401 1
E 399 420 6
E 400 414 4
E 401 408 2
E 401 424 6
E 402 405 1
E 402 434 10
E 403 429 7
E 404 408 1
E 404 452 14
E 405 425 5
E 405 450 13
E 406 409 1
E 406 410 1
E 407 411 1
E 407 436 9
E 408 431 6
E 408 473 21
E 409 413 1
E 411 429 5
E 411 439 9
E 412 414 1
E 412 415 1
E 413 416 1
E 413 417 1
E 414 418 1
E 414 419 1
E 415 419 1
E 415 433 6
E 416 421 1
E 416 425 2
E 417 421 1
E 418 422 1
E 418 423 1
E 419 423 1
E 419 437 6
E 420 424 1
E 420 434 5
E 421 428 2
E 421 435 5
E 422 426 1
E 422 427 1
E 423 427 1
E 423 440 6
E 424 431 2
E 424 438 5
E 425 428 1
E 425 521 34
E 426 430 1
E 426 501 28
E 427 430 1
E 427 444 6
E 428 442 5
E 428 523 34
E 429 453 9
E 430 449 6
E 430 507 28
E 431 446 5
E 431 488 21
E 433 437 1
E 433 457 9
E 434 438 1
E 435 442 2
E 436 439 1
E 436 447 3
E 437 440 1
E 437 461 9
E 438 446 2
E 439 443 1
E 439 453 5
E 440 444 1
E 440 465 9
E 441 445 1
E 441 457 7
E 443 448 1
E 443 454 5
E 444 449 1
E 444 467 9
E 445 462 7
E 446 450 1
E 446 484 14
E 447 451 1
E 447 458 6
E 448 451 1
E 448 455 5
E 449 470 9
E 449 525 28
E 450 504 21
E 451 459 5
E 451 463 6
E 452 469 7
E 453 454 1
E 454 455 1
E 454 456 1
E 455 459 1
E 455 460 1
E 456 460 1
E 456 501 16
E 457 461 1
E 457 462 1
E 458 463 1
E 458 482 7
E 459 464 1
E 459 479 6
E 460 464 1
E 460 506 16
E 461 465 1
E 461 466 1
E 462 466 1
E 462 469 2
E 463 479 5
E 463 485 7
E 464 496 12
E 465 467 1
E 465 468 1
E 466 468 1
E 466 472 2
E 467 470 1
E 467 471 1
E 468 471 1
E 468 475 2
E 469 472 1
E 469 473 1
E 470 474 1
E 470 486 5
E 471 474 1
E 471 477 2
E 472 475 1
E 472 476 1
E 473 476 1
E 473 488 6
E 474 480 2
E 474 487 5
E 475 477 1
E 475 478 1
E 476 478 1
E 476 490 6
E 477 480 1
E 477 481 1
E 478 481 1
E 478 493 6
E 479 495 7
E 480 483 1
E 480 492 5
E 481 483 1
E 481 494 6
E 482 485 1
E 482 505 9
E 483 498 6
E 484 500 7
E 485 495 5
E 485 510 9
E 486 489 2
E 487 491 2
E 488 490 1
E 488 500 5
E 489 499 4
E 490 493 1
E 490 503 5
E 491 502 4
E 492 497 2
E 493 494 1
E 493 508 5
E 494 498 1
E 494 514 5
E 495 524 9
E 496 511 4
E 497 513 4
E 498 517 5
E 498 574 28
E 499 522 7
E 500 503 1
E 500 504 1
E 501 506 1
E 501 507 1
E 502 526 7
E 503 508 1
E 503 509 1
E 504 509 1
E 504 521 5
E 505 510 1
E 506 511 1
E 506 512 1
E 507 512 1
E 507 525 6
E 508 514 1
E 508 515 1
E 509 515 1
E 510 520 3
E 510 524 5
E 511 516 1
E 512 516 1
E 512 528 6
E 513 532 7
E 514 517 1
E 514 518 1
E 515 518 1
E 516 531 6
E 516 582 26
E 517 519 1
E 517 529 5
E 518 519 1
E 520 534 5
E 521 523 1
E 522 548 9
E 523 527 1
E 524 534 3
E 525 528 1
E 525 543 7
E 526 553 9
E 527 530 1
E 527 537 5
E 528 531 1
E 528 547 7
E 529 535 2
E 530 533 1
E 530 540 5
E 531 551 7
E 532 558 9
E 534 536 1
E 535 544 4
E 536 539 2
E 537 540 1
E 538 541 1
E 538 542 1
E 539 550 3
E 539 584 17
E 541 545 1
E 541 546 1
E 542 546 1
E 542 572 12
E 543 547 1
E 543 552 2
E 544 563 7
E 545 549 1
E 545 562 6
E 546 549 1
E 546 575 12
E 547 551 1
E 547 554 2
E 548 552 1
E 548 553 1
E 549 564 6
E 549 579 12
E 550 566 7
E 551 556 2
E 551 606 26
E 552 554 1
E 552 555 1
E 553 555 1
E 553 558 2
E 554 556 1
E 554 557 1
E 555 557 1
E 555 560 2
E 556 559 1
E 556 568 6
E 557 559 1
E 557 561 2
E 558 560 1
E 559 570 6
E 560 561 1
E 562 564 1
E 563 585 9
E 564 569 3
E 564 593 12
E 565 580 6
E 565 626 26
E 566 567 1
E 566 597 17
E 567 573 2
E 567 600 17
E 568 587 7
E 569 571 1
E 570 589 7
E 571 581 3
E 572 575 1
E 573 576 1
E 573 608 17
E 574 577 1
E 574 588 5
E 575 579 1
E 576 583 3
E 576 613 17
E 577 580 1
E 577 590 5
E 578 581 1
E 579 593 6
E 580 591 5
E 581 586 2
E 581 599 12
E 584 597 10
E 585 588 1
E 587 598 9
E 588 590 1
E 589 603 9
E 590 591 1
E 591 596 6
E 592 594 1
E 594 595 1
E 596 656 20
E 597 600 1
E 597 601 1
E 598 610 3
E 600 605 1
E 600 608 2
E 601 605 1
E 601 620 6
E 602 606 1
E 602 609 2
E 603 616 3
E 604 607 1
E 604 638 12
E 605 614 2
E 605 625 6
E 606 615 2
E 607 623 5
E 607 641 12
E 608 613 1
E 608 614 1
E 609 637 10
E 610 615 1
E 611 627 5
E 612 638 10
E 613 617 1
E 613 624 4
E 614 617 1
E 614 633 6
E 615 618 1
E 615 619 2
E 616 618 1
E 617 629 4
E 617 636 6
E 618 621 2
E 618 622 2
E 619 621 1
E 619 630 3
E 620 625 1
E 620 637 6
E 621 634 3
E 622 626 1
E 623 627 1
E 623 657 12
E 624 628 1
E 624 629 1
E 625 633 2
E 625 639 6
E 626 635 2
E 627 631 1
E 627 662 12
E 628 632 1
E 628 679 16
E 629 632 1
E 629 643 6
E 630 648 7
E 631 668 12
E 632 646 6
E 633 636 1
E 633 647 6
E 634 652 7
E 635 660 10
E 636 643 4
E 636 649 6
E 637 639 1
E 637 640 1
E 638 641 1
E 638 642 1
E 639 644 1
E 639 647 2
E 640 644 1
E 640 648 2
E 641 645 1
E 641 657 5
E 642 645 1
E 642 693 20
E 643 646 1
E 643 664 6
E 644 650 2
E 644 651 2
E 645 663 5
E 645 696 20
E 646 670 6
E 646 684 16
E 647 649 1
E 647 650 1
E 648 651 1
E 648 652 1
E 649 653 1
E 649 664 4
E 650 653 1
E 650 654 2
E 651 654 2
E 652 655 2
E 653 658 2
E 653 671 4
E 654 658 1
E 655 659 1
E 655 660 1
E 656 661 1
E 656 667 2
E 657 662 1
E 657 663 1
E 658 665 1
E 658 675 3
E 659 666 1
E 659 672 2
E 660 666 1
E 662 668 1
E 662 669 1
E 663 669 1
E 663 679 4
E 664 670 1
E 664 671 1
E 665 676 2
E 665 710 21
E 666 681 6
E 667 683 10
E 668 673 1
E 668 720 25
E 669 673 1
E 670 674 1
E 671 674 1
E 671 678 2
E 672 676 1
E 672 682 7
E 673 722 26
E 674 680 2
E 674 702 16
E 675 678 1
E 676 716 21
E 677 689 10
E 678 680 1
E 678 703 15
E 680 685 7
E 680 706 15
E 681 682 2
E 681 686 5
E 682 691 5
E 683 686 1
E 683 687 1
E 684 688 1
E 685 693 3
E 686 691 2
E 687 689 1
E 688 690 1
E 689 692 1
E 690 704 6
E 690 708 8
E 691 694 1
E 692 698 2
E 693 696 1
E 694 697 1
E 694 701 3
E 695 700 2
E 695 708 6
E 696 707 5
E 697 699 1
E 697 741 21
E 698 699 1
E 699 760 31
E 700 714 6
E 700 732 15
E 701 703 1
E 702 705 1
E 702 707 2
E 703 706 1
E 704 721 8
E 705 709 2
E 706 725 10
E 707 709 1
E 707 710 1
E 708 714 2
E 708 721 6
E 709 711 1
E 709 712 1
E 710 712 1
E 710 716 2
E 711 715 1
E 711 727 8
E 712 715 1
E 712 718 2
E 713 717 1
E 714 724 6
E 714 745 15
E 715 719 2
E 715 730 8
E 716 718 1
E 716 728 7
E 718 719 1
E 718 731 7
E 719 734 7
E 719 737 8
E 720 732 6
E 721 723 1
E 721 724 2
E 722 735 5
E 723 726 2
E 723 727 2
E 724 726 1
E 724 750 15
E 725 729 1
E 726 733 2
E 726 753 15
E 727 730 1
E 727 733 2
E 728 731 1
E 728 739 5
E 729 739 5
E 730 736 2
E 730 737 2
E 731 734 1
E 731 740 5
E 732 735 1
E 732 745 6
E 733 736 1
E 733 758 15
E 734 742 5
E 734 748 8
E 735 744 5
E 735 747 6
E 736 738 2
E 736 776 21
E 737 738 2
E 737 748 7
E 738 749 7
E 738 765 15
E 739 740 1
E 739 741 1
E 740 742 1
E 740 743 1
E 741 743 1
E 742 746 1
E 742 754 8
E 743 746 1
E 745 747 1
E 745 750 6
E 746 756 8
E 747 752 6
E 748 749 2
E 748 754 5
E 749 759 5
E 749 787 21
E 750 752 1
E 750 753 1
E 751 757 2
E 751 766 6
E 752 755 1
E 752 764 5
E 753 755 1
E 753 758 2
E 754 756 1
E 754 759 2
E 755 761 2
E 755 767 5
E 756 760 1
E 756 762 2
E 757 772 6
E 758 761 1
E 758 765 3
E 759 762 1
E 759 786 15
E 760 763 2
E 761 768 3
E 761 773 5
E 762 763 1
E 763 769 2
E 764 766 1
E 764 767 1
E 765 768 1
E 765 786 12
E 766 771 1
E 766 772 2
E 767 771 1
E 767 773 2
E 768 779 5
E 768 788 12
E 771 775 2
E 772 774 1
E 772 775 1
E 773 776 1
E 774 777 1
E 775 777 1
E 776 778 1
E 776 779 2
E 777 780 2
E 778 781 2
E 778 782 2
E 779 782 1
E 779 787 7
E 780 783 1
E 781 783 1
E 781 784 2
E 782 784 2
E 782 789 7
E 783 785 2
E 784 785 1
E 784 790 7
E 785 791 7
E 786 788 1
E 787 789 1
E 787 792 5
E 788 792 5
E 789 790 2
E 789 793 5
E 790 791 1
E 790 794 5
E 791 795 5
E 791 796 9
E 792 793 1
E 793 794 2
E 794 795 1
E 795 797 9
E 796 797 5
E 1 798 100000
E 2 798 100000
E 3 798 100000
E 4 798 100000
E 5 799 100000
E 6 799 100000
E 7 799 100000
E 8 799 100000
E 9 800 100000
E 10 800 100000
E 11 800 100000
E 12 801 100000
E 13 801 100000
E 14 801 100000
E 15 801 100000
E 16 801 100000
E 17 802 100000
E 18 802 100000
E 19 802 100000
E 20 802 100000
E 21 802 100000
E 22 802 100000
E 23 803 100000
E 24 803 100000
E 25 804 100000
E 26 804 100000
E 27 805 100000
E 28 805 100000
E 29 806 100000
E 30 806 100000
E 31 806 100000
E 32 806 100000
E 33 806 100000
E 34 807 100000
E 35 807 100000
E 36 808 100000
E 37 808 100000
E 38 809 100000
E 39 809 100000
E 40 809 100000
E 41 809 100000
E 42 809 100000
E 43 809 100000
E 44 810 100000
E 45 810 100000
E 46 810 100000
E 47 810 100000
E 48 810 100000
E 49 811 100000
E 50 811 100000
E 51 812 100000
E 52 812 100000
E 53 812 100000
E 54 812 100000
E 55 812 100000
E 56 813 100000
E 57 813 100000
E 58 814 100000
E 59 814 100000
E 60 815 100000
E 61 815 100000
E 62 816 100000
E 63 816 100000
E 64 817 100000
E 65 817 100000
E 66 818 100000
E 67 818 100000
E 68 819 100000
E 69 819 100000
E 70 820 100000
E 71 820 100000
E 72 820 100000
E 73 820 100000
E 74 821 100000
E 75 821 100000
E 76 822 100000
E 77 822 100000
E 78 822 100000
E 79 822 100000
E 80 822 100000
E 81 823 100000
E 82 823 100000
E 83 824 100000
E 84 824 100000
E 85 825 100000
E 86 825 100000
E 87 826 100000
E 88 826 100000
E 89 827 100000
E 90 827 100000
E 91 828 100000
E 92 828 100000
E 93 829 100000
E 94 829 100000
E 95 829 100000
E 96 830 100000
E 97 830 100000
E 98 830 100000
E 99 831 100000
E 100 831 100000
E 101 831 100000
E 102 832 100000
E 103 832 100000
E 104 832 100000
E 105 833 100000
E 106 833 100000
E 107 833 100000
E 108 833 100000
E 109 834 100000
E 110 834 100000
E 111 835 100000
E 112 835 100000
E 113 836 100000
E 114 836 100000
E 115 837 100000
E 116 837 100000
E 117 838 100000
E 118 838 100000
E 119 839 100000
E 120 839 100000
E 121 840 100000
E 122 840 100000
E 123 841 100000
E 124 841 100000
E 125 842 100000
E 126 842 100000
E 127 843 100000
E 128 843 100000
E 129 844 100000
E 130 844 100000
E 131 845 100000
E 132 845 100000
E 133 846 100000
E 134 846 100000
E 135 847 100000
E 136 847 100000
E 137 848 100000
E 138 848 100000
E 139 849 100000
E 140 849 100000
E 141 850 100000
E 142 850 100000
E 143 851 100000
E 144 851 100000
E 145 852 100000
E 146 852 100000
E 147 852 100000
E 148 853 100000
E 149 798 100000
END 

SECTION Terminals 
Terminals 56
TP 798 826
TP 799 827
TP 800 828
TP 801 829
TP 802 830
TP 803 831
TP 804 832
TP 805 833
TP 806 834
TP 807 835
TP 808 836
TP 809 837
TP 810 838
TP 811 839
TP 812 840
TP 813 841
TP 814 842
TP 815 843
TP 816 844
TP 817 845
TP 818 846
TP 819 847
TP 820 848
TP 821 849
TP 822 850
TP 823 851
TP 824 852
TP 825 853
END 
